Traveling Salesman Problem/TSP_generados/Aleatorio1620390910_8.tsp
NAME: Aleatorio1620390910_8.tsp
COMMENT: Randomly generated scenario
TYPE: TSP
DIMENSION: 8
EDGE_WEIGHT_TYPE: ATT
NODE_COORD_SECTION
1 29.11 41.8
2 12.72 34.99
3 37.0 35.16
4 49.1 49.93
5 10.41 16.67
6 30.07 20.18
7 0.73 0.15
8 0.57 24.11
