Traveling Salesman Problem/TSP_generados/Aleatorio1620390910_8.opt.tour
NAME: Aleatorio1620390910_8.opt.tour
COMMENT: Optimal solution for Aleatorio1620390910_8 (154.31527829777772)
TYPE: TOUR
DIMENSION: 8
TOUR_SECTION
1 2 8 7 5 6 3 4
-1
EOF
